% Instance for pentominoes model generated using https://github.com/zayenz/minizinc-pentominoes-generator
% Instance generated for board size 10 with 15 tiles using 4711 as seed
% Generated board
%    bbdd666666
%    bbdd666633
%    bbddd7773c
%    bbbddd773c
%    1bbddd773c
%    1bbdddd334
%    111fddd3ee
%    111f55533e
%    225555g999
%    228888g999

size = 10;
tiles = 15;
expressions = [
    "( ([2 3 4 5 6 7 8 9 10 11 12 13 14 15 16]* 1{1} [2 3 4 5 6 7 8 9 10 11 12 13 14 15 16]{9} [2 3 4 5 6 7 8 9 10 11 12 13 14 15 16] 1{1} [2 3 4 5 6 7 8 9 10 11 12 13 14 15 16]{9} [2 3 4 5 6 7 8 9 10 11 12 13 14 15 16] 1{3} [2 3 4 5 6 7 8 9 10 11 12 13 14 15 16]{7} [2 3 4 5 6 7 8 9 10 11 12 13 14 15 16] 1{3} [2 3 4 5 6 7 8 9 10 11 12 13 14 15 16]*) | ([2 3 4 5 6 7 8 9 10 11 12 13 14 15 16]* 1{4} [2 3 4 5 6 7 8 9 10 11 12 13 14 15 16]{4} [2 3 4 5 6 7 8 9 10 11 12 13 14 15 16] [2 3 4 5 6 7 8 9 10 11 12 13 14 15 16]{2} 1{2} [2 3 4 5 6 7 8 9 10 11 12 13 14 15 16]{6} [2 3 4 5 6 7 8 9 10 11 12 13 14 15 16] [2 3 4 5 6 7 8 9 10 11 12 13 14 15 16]{2} 1{2} [2 3 4 5 6 7 8 9 10 11 12 13 14 15 16]*) | ([2 3 4 5 6 7 8 9 10 11 12 13 14 15 16]* 1{3} [2 3 4 5 6 7 8 9 10 11 12 13 14 15 16] [2 3 4 5 6 7 8 9 10 11 12 13 14 15 16]{7} 1{3} [2 3 4 5 6 7 8 9 10 11 12 13 14 15 16] [2 3 4 5 6 7 8 9 10 11 12 13 14 15 16]{9} 1{1} [2 3 4 5 6 7 8 9 10 11 12 13 14 15 16] [2 3 4 5 6 7 8 9 10 11 12 13 14 15 16]{9} 1{1} [2 3 4 5 6 7 8 9 10 11 12 13 14 15 16]*) | ([2 3 4 5 6 7 8 9 10 11 12 13 14 15 16]* 1{2} [2 3 4 5 6 7 8 9 10 11 12 13 14 15 16]{2} [2 3 4 5 6 7 8 9 10 11 12 13 14 15 16] [2 3 4 5 6 7 8 9 10 11 12 13 14 15 16]{6} 1{2} [2 3 4 5 6 7 8 9 10 11 12 13 14 15 16]{2} [2 3 4 5 6 7 8 9 10 11 12 13 14 15 16] [2 3 4 5 6 7 8 9 10 11 12 13 14 15 16]{4} 1{4} [2 3 4 5 6 7 8 9 10 11 12 13 14 15 16]*) | ([2 3 4 5 6 7 8 9 10 11 12 13 14 15 16]* 1{1} [2 3 4 5 6 7 8 9 10 11 12 13 14 15 16] [2 3 4 5 6 7 8 9 10 11 12 13 14 15 16]{9} 1{1} [2 3 4 5 6 7 8 9 10 11 12 13 14 15 16] [2 3 4 5 6 7 8 9 10 11 12 13 14 15 16]{7} 1{3} [2 3 4 5 6 7 8 9 10 11 12 13 14 15 16] [2 3 4 5 6 7 8 9 10 11 12 13 14 15 16]{7} 1{3} [2 3 4 5 6 7 8 9 10 11 12 13 14 15 16]*) | ([2 3 4 5 6 7 8 9 10 11 12 13 14 15 16]* 1{4} [2 3 4 5 6 7 8 9 10 11 12 13 14 15 16]{2} [2 3 4 5 6 7 8 9 10 11 12 13 14 15 16] [2 3 4 5 6 7 8 9 10 11 12 13 14 15 16]{6} 1{2} [2 3 4 5 6 7 8 9 10 11 12 13 14 15 16]{2} [2 3 4 5 6 7 8 9 10 11 12 13 14 15 16] [2 3 4 5 6 7 8 9 10 11 12 13 14 15 16]{6} 1{2} [2 3 4 5 6 7 8 9 10 11 12 13 14 15 16]*) | ([2 3 4 5 6 7 8 9 10 11 12 13 14 15 16]* 1{3} [2 3 4 5 6 7 8 9 10 11 12 13 14 15 16]{7} [2 3 4 5 6 7 8 9 10 11 12 13 14 15 16] 1{3} [2 3 4 5 6 7 8 9 10 11 12 13 14 15 16]{7} [2 3 4 5 6 7 8 9 10 11 12 13 14 15 16] 1{1} [2 3 4 5 6 7 8 9 10 11 12 13 14 15 16]{9} [2 3 4 5 6 7 8 9 10 11 12 13 14 15 16] 1{1} [2 3 4 5 6 7 8 9 10 11 12 13 14 15 16]*) | ([2 3 4 5 6 7 8 9 10 11 12 13 14 15 16]* 1{2} [2 3 4 5 6 7 8 9 10 11 12 13 14 15 16]{6} [2 3 4 5 6 7 8 9 10 11 12 13 14 15 16] [2 3 4 5 6 7 8 9 10 11 12 13 14 15 16]{2} 1{2} [2 3 4 5 6 7 8 9 10 11 12 13 14 15 16]{6} [2 3 4 5 6 7 8 9 10 11 12 13 14 15 16] [2 3 4 5 6 7 8 9 10 11 12 13 14 15 16]{2} 1{4} [2 3 4 5 6 7 8 9 10 11 12 13 14 15 16]*) )",
    "( ([1 3 4 5 6 7 8 9 10 11 12 13 14 15 16]* 2{2} [1 3 4 5 6 7 8 9 10 11 12 13 14 15 16]{8} [1 3 4 5 6 7 8 9 10 11 12 13 14 15 16] 2{2} [1 3 4 5 6 7 8 9 10 11 12 13 14 15 16]*) | ([1 3 4 5 6 7 8 9 10 11 12 13 14 15 16]* 2{2} [1 3 4 5 6 7 8 9 10 11 12 13 14 15 16] [1 3 4 5 6 7 8 9 10 11 12 13 14 15 16]{8} 2{2} [1 3 4 5 6 7 8 9 10 11 12 13 14 15 16]*) )",
    "( ([1 2 4 5 6 7 8 9 10 11 12 13 14 15 16]* 3{2} [1 2 4 5 6 7 8 9 10 11 12 13 14 15 16] [1 2 4 5 6 7 8 9 10 11 12 13 14 15 16]{8} 3{1} [1 2 4 5 6 7 8 9 10 11 12 13 14 15 16]{1} [1 2 4 5 6 7 8 9 10 11 12 13 14 15 16] [1 2 4 5 6 7 8 9 10 11 12 13 14 15 16]{8} 3{1} [1 2 4 5 6 7 8 9 10 11 12 13 14 15 16]{1} [1 2 4 5 6 7 8 9 10 11 12 13 14 15 16] [1 2 4 5 6 7 8 9 10 11 12 13 14 15 16]{8} 3{1} [1 2 4 5 6 7 8 9 10 11 12 13 14 15 16]{1} [1 2 4 5 6 7 8 9 10 11 12 13 14 15 16] [1 2 4 5 6 7 8 9 10 11 12 13 14 15 16]{7} 3{2} [1 2 4 5 6 7 8 9 10 11 12 13 14 15 16]{1} [1 2 4 5 6 7 8 9 10 11 12 13 14 15 16] [1 2 4 5 6 7 8 9 10 11 12 13 14 15 16]{7} 3{1} [1 2 4 5 6 7 8 9 10 11 12 13 14 15 16]{2} [1 2 4 5 6 7 8 9 10 11 12 13 14 15 16] [1 2 4 5 6 7 8 9 10 11 12 13 14 15 16]{7} 3{2} [1 2 4 5 6 7 8 9 10 11 12 13 14 15 16]*) | ([1 2 4 5 6 7 8 9 10 11 12 13 14 15 16]* 3{3} [1 2 4 5 6 7 8 9 10 11 12 13 14 15 16]{5} [1 2 4 5 6 7 8 9 10 11 12 13 14 15 16] [1 2 4 5 6 7 8 9 10 11 12 13 14 15 16]{2} 3{1} [1 2 4 5 6 7 8 9 10 11 12 13 14 15 16]{1} 3{5} [1 2 4 5 6 7 8 9 10 11 12 13 14 15 16]{1} [1 2 4 5 6 7 8 9 10 11 12 13 14 15 16] [1 2 4 5 6 7 8 9 10 11 12 13 14 15 16]{8} 3{1} [1 2 4 5 6 7 8 9 10 11 12 13 14 15 16]*) | ([1 2 4 5 6 7 8 9 10 11 12 13 14 15 16]* 3{2} [1 2 4 5 6 7 8 9 10 11 12 13 14 15 16]{7} [1 2 4 5 6 7 8 9 10 11 12 13 14 15 16] [1 2 4 5 6 7 8 9 10 11 12 13 14 15 16]{2} 3{1} [1 2 4 5 6 7 8 9 10 11 12 13 14 15 16]{7} [1 2 4 5 6 7 8 9 10 11 12 13 14 15 16] [1 2 4 5 6 7 8 9 10 11 12 13 14 15 16]{1} 3{2} [1 2 4 5 6 7 8 9 10 11 12 13 14 15 16]{7} [1 2 4 5 6 7 8 9 10 11 12 13 14 15 16] [1 2 4 5 6 7 8 9 10 11 12 13 14 15 16]{1} 3{1} [1 2 4 5 6 7 8 9 10 11 12 13 14 15 16]{8} [1 2 4 5 6 7 8 9 10 11 12 13 14 15 16] [1 2 4 5 6 7 8 9 10 11 12 13 14 15 16]{1} 3{1} [1 2 4 5 6 7 8 9 10 11 12 13 14 15 16]{8} [1 2 4 5 6 7 8 9 10 11 12 13 14 15 16] [1 2 4 5 6 7 8 9 10 11 12 13 14 15 16]{1} 3{1} [1 2 4 5 6 7 8 9 10 11 12 13 14 15 16]{8} [1 2 4 5 6 7 8 9 10 11 12 13 14 15 16] 3{2} [1 2 4 5 6 7 8 9 10 11 12 13 14 15 16]*) | ([1 2 4 5 6 7 8 9 10 11 12 13 14 15 16]* 3{1} [1 2 4 5 6 7 8 9 10 11 12 13 14 15 16]{8} [1 2 4 5 6 7 8 9 10 11 12 13 14 15 16] [1 2 4 5 6 7 8 9 10 11 12 13 14 15 16]{1} 3{5} [1 2 4 5 6 7 8 9 10 11 12 13 14 15 16]{1} 3{1} [1 2 4 5 6 7 8 9 10 11 12 13 14 15 16]{2} [1 2 4 5 6 7 8 9 10 11 12 13 14 15 16] [1 2 4 5 6 7 8 9 10 11 12 13 14 15 16]{5} 3{3} [1 2 4 5 6 7 8 9 10 11 12 13 14 15 16]*) | ([1 2 4 5 6 7 8 9 10 11 12 13 14 15 16]* 3{2} [1 2 4 5 6 7 8 9 10 11 12 13 14 15 16]{8} [1 2 4 5 6 7 8 9 10 11 12 13 14 15 16] [1 2 4 5 6 7 8 9 10 11 12 13 14 15 16]{1} 3{1} [1 2 4 5 6 7 8 9 10 11 12 13 14 15 16]{8} [1 2 4 5 6 7 8 9 10 11 12 13 14 15 16] [1 2 4 5 6 7 8 9 10 11 12 13 14 15 16]{1} 3{1} [1 2 4 5 6 7 8 9 10 11 12 13 14 15 16]{8} [1 2 4 5 6 7 8 9 10 11 12 13 14 15 16] [1 2 4 5 6 7 8 9 10 11 12 13 14 15 16]{1} 3{1} [1 2 4 5 6 7 8 9 10 11 12 13 14 15 16]{8} [1 2 4 5 6 7 8 9 10 11 12 13 14 15 16] [1 2 4 5 6 7 8 9 10 11 12 13 14 15 16]{1} 3{2} [1 2 4 5 6 7 8 9 10 11 12 13 14 15 16]{7} [1 2 4 5 6 7 8 9 10 11 12 13 14 15 16] [1 2 4 5 6 7 8 9 10 11 12 13 14 15 16]{2} 3{1} [1 2 4 5 6 7 8 9 10 11 12 13 14 15 16]{7} [1 2 4 5 6 7 8 9 10 11 12 13 14 15 16] [1 2 4 5 6 7 8 9 10 11 12 13 14 15 16]{1} 3{2} [1 2 4 5 6 7 8 9 10 11 12 13 14 15 16]*) | ([1 2 4 5 6 7 8 9 10 11 12 13 14 15 16]* 3{3} [1 2 4 5 6 7 8 9 10 11 12 13 14 15 16]{2} [1 2 4 5 6 7 8 9 10 11 12 13 14 15 16] [1 2 4 5 6 7 8 9 10 11 12 13 14 15 16]{1} 3{5} [1 2 4 5 6 7 8 9 10 11 12 13 14 15 16]{1} 3{1} [1 2 4 5 6 7 8 9 10 11 12 13 14 15 16]{2} [1 2 4 5 6 7 8 9 10 11 12 13 14 15 16] [1 2 4 5 6 7 8 9 10 11 12 13 14 15 16]{1} 3{1} [1 2 4 5 6 7 8 9 10 11 12 13 14 15 16]*) | ([1 2 4 5 6 7 8 9 10 11 12 13 14 15 16]* 3{2} [1 2 4 5 6 7 8 9 10 11 12 13 14 15 16]{1} [1 2 4 5 6 7 8 9 10 11 12 13 14 15 16] [1 2 4 5 6 7 8 9 10 11 12 13 14 15 16]{7} 3{1} [1 2 4 5 6 7 8 9 10 11 12 13 14 15 16]{2} [1 2 4 5 6 7 8 9 10 11 12 13 14 15 16] [1 2 4 5 6 7 8 9 10 11 12 13 14 15 16]{7} 3{2} [1 2 4 5 6 7 8 9 10 11 12 13 14 15 16]{1} [1 2 4 5 6 7 8 9 10 11 12 13 14 15 16] [1 2 4 5 6 7 8 9 10 11 12 13 14 15 16]{8} 3{1} [1 2 4 5 6 7 8 9 10 11 12 13 14 15 16]{1} [1 2 4 5 6 7 8 9 10 11 12 13 14 15 16] [1 2 4 5 6 7 8 9 10 11 12 13 14 15 16]{8} 3{1} [1 2 4 5 6 7 8 9 10 11 12 13 14 15 16]{1} [1 2 4 5 6 7 8 9 10 11 12 13 14 15 16] [1 2 4 5 6 7 8 9 10 11 12 13 14 15 16]{8} 3{1} [1 2 4 5 6 7 8 9 10 11 12 13 14 15 16]{1} [1 2 4 5 6 7 8 9 10 11 12 13 14 15 16] [1 2 4 5 6 7 8 9 10 11 12 13 14 15 16]{8} 3{2} [1 2 4 5 6 7 8 9 10 11 12 13 14 15 16]*) | ([1 2 4 5 6 7 8 9 10 11 12 13 14 15 16]* 3{1} [1 2 4 5 6 7 8 9 10 11 12 13 14 15 16]{1} [1 2 4 5 6 7 8 9 10 11 12 13 14 15 16] [1 2 4 5 6 7 8 9 10 11 12 13 14 15 16]{2} 3{1} [1 2 4 5 6 7 8 9 10 11 12 13 14 15 16]{1} 3{5} [1 2 4 5 6 7 8 9 10 11 12 13 14 15 16]{1} [1 2 4 5 6 7 8 9 10 11 12 13 14 15 16] [1 2 4 5 6 7 8 9 10 11 12 13 14 15 16]{2} 3{3} [1 2 4 5 6 7 8 9 10 11 12 13 14 15 16]*) )",
    "( ([1 2 3 5 6 7 8 9 10 11 12 13 14 15 16]* 4{1} [1 2 3 5 6 7 8 9 10 11 12 13 14 15 16]*) )",
    "( ([1 2 3 4 6 7 8 9 10 11 12 13 14 15 16]* 5{3} [1 2 3 4 6 7 8 9 10 11 12 13 14 15 16]{3} [1 2 3 4 6 7 8 9 10 11 12 13 14 15 16] [1 2 3 4 6 7 8 9 10 11 12 13 14 15 16]{2} 5{4} [1 2 3 4 6 7 8 9 10 11 12 13 14 15 16]*) | ([1 2 3 4 6 7 8 9 10 11 12 13 14 15 16]* 5{1} [1 2 3 4 6 7 8 9 10 11 12 13 14 15 16]{8} [1 2 3 4 6 7 8 9 10 11 12 13 14 15 16] [1 2 3 4 6 7 8 9 10 11 12 13 14 15 16]{1} 5{1} [1 2 3 4 6 7 8 9 10 11 12 13 14 15 16]{8} [1 2 3 4 6 7 8 9 10 11 12 13 14 15 16] [1 2 3 4 6 7 8 9 10 11 12 13 14 15 16]{1} 5{2} [1 2 3 4 6 7 8 9 10 11 12 13 14 15 16]{7} [1 2 3 4 6 7 8 9 10 11 12 13 14 15 16] [1 2 3 4 6 7 8 9 10 11 12 13 14 15 16]{1} 5{2} [1 2 3 4 6 7 8 9 10 11 12 13 14 15 16]{7} [1 2 3 4 6 7 8 9 10 11 12 13 14 15 16] [1 2 3 4 6 7 8 9 10 11 12 13 14 15 16]{2} 5{1} [1 2 3 4 6 7 8 9 10 11 12 13 14 15 16]*) | ([1 2 3 4 6 7 8 9 10 11 12 13 14 15 16]* 5{4} [1 2 3 4 6 7 8 9 10 11 12 13 14 15 16]{2} [1 2 3 4 6 7 8 9 10 11 12 13 14 15 16] [1 2 3 4 6 7 8 9 10 11 12 13 14 15 16]{3} 5{3} [1 2 3 4 6 7 8 9 10 11 12 13 14 15 16]*) | ([1 2 3 4 6 7 8 9 10 11 12 13 14 15 16]* 5{1} [1 2 3 4 6 7 8 9 10 11 12 13 14 15 16]{2} [1 2 3 4 6 7 8 9 10 11 12 13 14 15 16] [1 2 3 4 6 7 8 9 10 11 12 13 14 15 16]{7} 5{2} [1 2 3 4 6 7 8 9 10 11 12 13 14 15 16]{1} [1 2 3 4 6 7 8 9 10 11 12 13 14 15 16] [1 2 3 4 6 7 8 9 10 11 12 13 14 15 16]{7} 5{2} [1 2 3 4 6 7 8 9 10 11 12 13 14 15 16]{1} [1 2 3 4 6 7 8 9 10 11 12 13 14 15 16] [1 2 3 4 6 7 8 9 10 11 12 13 14 15 16]{8} 5{1} [1 2 3 4 6 7 8 9 10 11 12 13 14 15 16]{1} [1 2 3 4 6 7 8 9 10 11 12 13 14 15 16] [1 2 3 4 6 7 8 9 10 11 12 13 14 15 16]{8} 5{1} [1 2 3 4 6 7 8 9 10 11 12 13 14 15 16]*) | ([1 2 3 4 6 7 8 9 10 11 12 13 14 15 16]* 5{3} [1 2 3 4 6 7 8 9 10 11 12 13 14 15 16]{4} [1 2 3 4 6 7 8 9 10 11 12 13 14 15 16] [1 2 3 4 6 7 8 9 10 11 12 13 14 15 16]{4} 5{4} [1 2 3 4 6 7 8 9 10 11 12 13 14 15 16]*) | ([1 2 3 4 6 7 8 9 10 11 12 13 14 15 16]* 5{1} [1 2 3 4 6 7 8 9 10 11 12 13 14 15 16]{1} [1 2 3 4 6 7 8 9 10 11 12 13 14 15 16] [1 2 3 4 6 7 8 9 10 11 12 13 14 15 16]{8} 5{1} [1 2 3 4 6 7 8 9 10 11 12 13 14 15 16]{1} [1 2 3 4 6 7 8 9 10 11 12 13 14 15 16] [1 2 3 4 6 7 8 9 10 11 12 13 14 15 16]{7} 5{2} [1 2 3 4 6 7 8 9 10 11 12 13 14 15 16]{1} [1 2 3 4 6 7 8 9 10 11 12 13 14 15 16] [1 2 3 4 6 7 8 9 10 11 12 13 14 15 16]{7} 5{2} [1 2 3 4 6 7 8 9 10 11 12 13 14 15 16]{1} [1 2 3 4 6 7 8 9 10 11 12 13 14 15 16] [1 2 3 4 6 7 8 9 10 11 12 13 14 15 16]{7} 5{1} [1 2 3 4 6 7 8 9 10 11 12 13 14 15 16]*) | ([1 2 3 4 6 7 8 9 10 11 12 13 14 15 16]* 5{4} [1 2 3 4 6 7 8 9 10 11 12 13 14 15 16]{4} [1 2 3 4 6 7 8 9 10 11 12 13 14 15 16] [1 2 3 4 6 7 8 9 10 11 12 13 14 15 16]{4} 5{3} [1 2 3 4 6 7 8 9 10 11 12 13 14 15 16]*) | ([1 2 3 4 6 7 8 9 10 11 12 13 14 15 16]* 5{1} [1 2 3 4 6 7 8 9 10 11 12 13 14 15 16]{7} [1 2 3 4 6 7 8 9 10 11 12 13 14 15 16] [1 2 3 4 6 7 8 9 10 11 12 13 14 15 16]{1} 5{2} [1 2 3 4 6 7 8 9 10 11 12 13 14 15 16]{7} [1 2 3 4 6 7 8 9 10 11 12 13 14 15 16] [1 2 3 4 6 7 8 9 10 11 12 13 14 15 16]{1} 5{2} [1 2 3 4 6 7 8 9 10 11 12 13 14 15 16]{7} [1 2 3 4 6 7 8 9 10 11 12 13 14 15 16] [1 2 3 4 6 7 8 9 10 11 12 13 14 15 16]{1} 5{1} [1 2 3 4 6 7 8 9 10 11 12 13 14 15 16]{8} [1 2 3 4 6 7 8 9 10 11 12 13 14 15 16] [1 2 3 4 6 7 8 9 10 11 12 13 14 15 16]{1} 5{1} [1 2 3 4 6 7 8 9 10 11 12 13 14 15 16]*) )",
    "( ([1 2 3 4 5 7 8 9 10 11 12 13 14 15 16]* 6{6} [1 2 3 4 5 7 8 9 10 11 12 13 14 15 16] [1 2 3 4 5 7 8 9 10 11 12 13 14 15 16]{4} 6{4} [1 2 3 4 5 7 8 9 10 11 12 13 14 15 16]*) | ([1 2 3 4 5 7 8 9 10 11 12 13 14 15 16]* 6{2} [1 2 3 4 5 7 8 9 10 11 12 13 14 15 16] [1 2 3 4 5 7 8 9 10 11 12 13 14 15 16]{8} 6{2} [1 2 3 4 5 7 8 9 10 11 12 13 14 15 16] [1 2 3 4 5 7 8 9 10 11 12 13 14 15 16]{8} 6{2} [1 2 3 4 5 7 8 9 10 11 12 13 14 15 16] [1 2 3 4 5 7 8 9 10 11 12 13 14 15 16]{8} 6{2} [1 2 3 4 5 7 8 9 10 11 12 13 14 15 16] [1 2 3 4 5 7 8 9 10 11 12 13 14 15 16]{9} 6{1} [1 2 3 4 5 7 8 9 10 11 12 13 14 15 16] [1 2 3 4 5 7 8 9 10 11 12 13 14 15 16]{9} 6{1} [1 2 3 4 5 7 8 9 10 11 12 13 14 15 16]*) | ([1 2 3 4 5 7 8 9 10 11 12 13 14 15 16]* 6{4} [1 2 3 4 5 7 8 9 10 11 12 13 14 15 16]{4} [1 2 3 4 5 7 8 9 10 11 12 13 14 15 16] 6{6} [1 2 3 4 5 7 8 9 10 11 12 13 14 15 16]*) | ([1 2 3 4 5 7 8 9 10 11 12 13 14 15 16]* 6{1} [1 2 3 4 5 7 8 9 10 11 12 13 14 15 16]{9} [1 2 3 4 5 7 8 9 10 11 12 13 14 15 16] 6{1} [1 2 3 4 5 7 8 9 10 11 12 13 14 15 16]{9} [1 2 3 4 5 7 8 9 10 11 12 13 14 15 16] 6{2} [1 2 3 4 5 7 8 9 10 11 12 13 14 15 16]{8} [1 2 3 4 5 7 8 9 10 11 12 13 14 15 16] 6{2} [1 2 3 4 5 7 8 9 10 11 12 13 14 15 16]{8} [1 2 3 4 5 7 8 9 10 11 12 13 14 15 16] 6{2} [1 2 3 4 5 7 8 9 10 11 12 13 14 15 16]{8} [1 2 3 4 5 7 8 9 10 11 12 13 14 15 16] 6{2} [1 2 3 4 5 7 8 9 10 11 12 13 14 15 16]*) | ([1 2 3 4 5 7 8 9 10 11 12 13 14 15 16]* 6{6} [1 2 3 4 5 7 8 9 10 11 12 13 14 15 16]{4} [1 2 3 4 5 7 8 9 10 11 12 13 14 15 16] [1 2 3 4 5 7 8 9 10 11 12 13 14 15 16]{2} 6{4} [1 2 3 4 5 7 8 9 10 11 12 13 14 15 16]*) | ([1 2 3 4 5 7 8 9 10 11 12 13 14 15 16]* 6{2} [1 2 3 4 5 7 8 9 10 11 12 13 14 15 16]{8} [1 2 3 4 5 7 8 9 10 11 12 13 14 15 16] 6{2} [1 2 3 4 5 7 8 9 10 11 12 13 14 15 16]{8} [1 2 3 4 5 7 8 9 10 11 12 13 14 15 16] 6{2} [1 2 3 4 5 7 8 9 10 11 12 13 14 15 16]{8} [1 2 3 4 5 7 8 9 10 11 12 13 14 15 16] 6{2} [1 2 3 4 5 7 8 9 10 11 12 13 14 15 16]{8} [1 2 3 4 5 7 8 9 10 11 12 13 14 15 16] 6{1} [1 2 3 4 5 7 8 9 10 11 12 13 14 15 16]{9} [1 2 3 4 5 7 8 9 10 11 12 13 14 15 16] 6{1} [1 2 3 4 5 7 8 9 10 11 12 13 14 15 16]*) | ([1 2 3 4 5 7 8 9 10 11 12 13 14 15 16]* 6{4} [1 2 3 4 5 7 8 9 10 11 12 13 14 15 16]{2} [1 2 3 4 5 7 8 9 10 11 12 13 14 15 16] [1 2 3 4 5 7 8 9 10 11 12 13 14 15 16]{4} 6{6} [1 2 3 4 5 7 8 9 10 11 12 13 14 15 16]*) | ([1 2 3 4 5 7 8 9 10 11 12 13 14 15 16]* 6{1} [1 2 3 4 5 7 8 9 10 11 12 13 14 15 16] [1 2 3 4 5 7 8 9 10 11 12 13 14 15 16]{9} 6{1} [1 2 3 4 5 7 8 9 10 11 12 13 14 15 16] [1 2 3 4 5 7 8 9 10 11 12 13 14 15 16]{8} 6{2} [1 2 3 4 5 7 8 9 10 11 12 13 14 15 16] [1 2 3 4 5 7 8 9 10 11 12 13 14 15 16]{8} 6{2} [1 2 3 4 5 7 8 9 10 11 12 13 14 15 16] [1 2 3 4 5 7 8 9 10 11 12 13 14 15 16]{8} 6{2} [1 2 3 4 5 7 8 9 10 11 12 13 14 15 16] [1 2 3 4 5 7 8 9 10 11 12 13 14 15 16]{8} 6{2} [1 2 3 4 5 7 8 9 10 11 12 13 14 15 16]*) )",
    "( ([1 2 3 4 5 6 8 9 10 11 12 13 14 15 16]* 7{3} [1 2 3 4 5 6 8 9 10 11 12 13 14 15 16]{2} [1 2 3 4 5 6 8 9 10 11 12 13 14 15 16] [1 2 3 4 5 6 8 9 10 11 12 13 14 15 16]{6} 7{2} [1 2 3 4 5 6 8 9 10 11 12 13 14 15 16]{2} [1 2 3 4 5 6 8 9 10 11 12 13 14 15 16] [1 2 3 4 5 6 8 9 10 11 12 13 14 15 16]{6} 7{2} [1 2 3 4 5 6 8 9 10 11 12 13 14 15 16]*) | ([1 2 3 4 5 6 8 9 10 11 12 13 14 15 16]* 7{1} [1 2 3 4 5 6 8 9 10 11 12 13 14 15 16]{2} [1 2 3 4 5 6 8 9 10 11 12 13 14 15 16] [1 2 3 4 5 6 8 9 10 11 12 13 14 15 16]{5} 7{3} [1 2 3 4 5 6 8 9 10 11 12 13 14 15 16]{2} [1 2 3 4 5 6 8 9 10 11 12 13 14 15 16] [1 2 3 4 5 6 8 9 10 11 12 13 14 15 16]{5} 7{3} [1 2 3 4 5 6 8 9 10 11 12 13 14 15 16]*) | ([1 2 3 4 5 6 8 9 10 11 12 13 14 15 16]* 7{2} [1 2 3 4 5 6 8 9 10 11 12 13 14 15 16]{6} [1 2 3 4 5 6 8 9 10 11 12 13 14 15 16] [1 2 3 4 5 6 8 9 10 11 12 13 14 15 16]{2} 7{2} [1 2 3 4 5 6 8 9 10 11 12 13 14 15 16]{6} [1 2 3 4 5 6 8 9 10 11 12 13 14 15 16] [1 2 3 4 5 6 8 9 10 11 12 13 14 15 16]{2} 7{3} [1 2 3 4 5 6 8 9 10 11 12 13 14 15 16]*) | ([1 2 3 4 5 6 8 9 10 11 12 13 14 15 16]* 7{3} [1 2 3 4 5 6 8 9 10 11 12 13 14 15 16]{5} [1 2 3 4 5 6 8 9 10 11 12 13 14 15 16] [1 2 3 4 5 6 8 9 10 11 12 13 14 15 16]{2} 7{3} [1 2 3 4 5 6 8 9 10 11 12 13 14 15 16]{5} [1 2 3 4 5 6 8 9 10 11 12 13 14 15 16] [1 2 3 4 5 6 8 9 10 11 12 13 14 15 16]{2} 7{1} [1 2 3 4 5 6 8 9 10 11 12 13 14 15 16]*) | ([1 2 3 4 5 6 8 9 10 11 12 13 14 15 16]* 7{3} [1 2 3 4 5 6 8 9 10 11 12 13 14 15 16]{5} [1 2 3 4 5 6 8 9 10 11 12 13 14 15 16] [1 2 3 4 5 6 8 9 10 11 12 13 14 15 16]{2} 7{2} [1 2 3 4 5 6 8 9 10 11 12 13 14 15 16]{6} [1 2 3 4 5 6 8 9 10 11 12 13 14 15 16] [1 2 3 4 5 6 8 9 10 11 12 13 14 15 16]{2} 7{2} [1 2 3 4 5 6 8 9 10 11 12 13 14 15 16]*) | ([1 2 3 4 5 6 8 9 10 11 12 13 14 15 16]* 7{1} [1 2 3 4 5 6 8 9 10 11 12 13 14 15 16]{7} [1 2 3 4 5 6 8 9 10 11 12 13 14 15 16] [1 2 3 4 5 6 8 9 10 11 12 13 14 15 16]{2} 7{3} [1 2 3 4 5 6 8 9 10 11 12 13 14 15 16]{5} [1 2 3 4 5 6 8 9 10 11 12 13 14 15 16] [1 2 3 4 5 6 8 9 10 11 12 13 14 15 16]{2} 7{3} [1 2 3 4 5 6 8 9 10 11 12 13 14 15 16]*) | ([1 2 3 4 5 6 8 9 10 11 12 13 14 15 16]* 7{2} [1 2 3 4 5 6 8 9 10 11 12 13 14 15 16]{2} [1 2 3 4 5 6 8 9 10 11 12 13 14 15 16] [1 2 3 4 5 6 8 9 10 11 12 13 14 15 16]{6} 7{2} [1 2 3 4 5 6 8 9 10 11 12 13 14 15 16]{2} [1 2 3 4 5 6 8 9 10 11 12 13 14 15 16] [1 2 3 4 5 6 8 9 10 11 12 13 14 15 16]{5} 7{3} [1 2 3 4 5 6 8 9 10 11 12 13 14 15 16]*) | ([1 2 3 4 5 6 8 9 10 11 12 13 14 15 16]* 7{3} [1 2 3 4 5 6 8 9 10 11 12 13 14 15 16]{2} [1 2 3 4 5 6 8 9 10 11 12 13 14 15 16] [1 2 3 4 5 6 8 9 10 11 12 13 14 15 16]{5} 7{3} [1 2 3 4 5 6 8 9 10 11 12 13 14 15 16]{2} [1 2 3 4 5 6 8 9 10 11 12 13 14 15 16] [1 2 3 4 5 6 8 9 10 11 12 13 14 15 16]{7} 7{1} [1 2 3 4 5 6 8 9 10 11 12 13 14 15 16]*) )",
    "( ([1 2 3 4 5 6 7 9 10 11 12 13 14 15 16]* 8{4} [1 2 3 4 5 6 7 9 10 11 12 13 14 15 16]*) | ([1 2 3 4 5 6 7 9 10 11 12 13 14 15 16]* 8{1} [1 2 3 4 5 6 7 9 10 11 12 13 14 15 16]{9} [1 2 3 4 5 6 7 9 10 11 12 13 14 15 16] 8{1} [1 2 3 4 5 6 7 9 10 11 12 13 14 15 16]{9} [1 2 3 4 5 6 7 9 10 11 12 13 14 15 16] 8{1} [1 2 3 4 5 6 7 9 10 11 12 13 14 15 16]{9} [1 2 3 4 5 6 7 9 10 11 12 13 14 15 16] 8{1} [1 2 3 4 5 6 7 9 10 11 12 13 14 15 16]*) | ([1 2 3 4 5 6 7 9 10 11 12 13 14 15 16]* 8{1} [1 2 3 4 5 6 7 9 10 11 12 13 14 15 16] [1 2 3 4 5 6 7 9 10 11 12 13 14 15 16]{9} 8{1} [1 2 3 4 5 6 7 9 10 11 12 13 14 15 16] [1 2 3 4 5 6 7 9 10 11 12 13 14 15 16]{9} 8{1} [1 2 3 4 5 6 7 9 10 11 12 13 14 15 16] [1 2 3 4 5 6 7 9 10 11 12 13 14 15 16]{9} 8{1} [1 2 3 4 5 6 7 9 10 11 12 13 14 15 16]*) )",
    "( ([1 2 3 4 5 6 7 8 10 11 12 13 14 15 16]* 9{3} [1 2 3 4 5 6 7 8 10 11 12 13 14 15 16] [1 2 3 4 5 6 7 8 10 11 12 13 14 15 16]{7} 9{3} [1 2 3 4 5 6 7 8 10 11 12 13 14 15 16]*) | ([1 2 3 4 5 6 7 8 10 11 12 13 14 15 16]* 9{2} [1 2 3 4 5 6 7 8 10 11 12 13 14 15 16]{8} [1 2 3 4 5 6 7 8 10 11 12 13 14 15 16] 9{2} [1 2 3 4 5 6 7 8 10 11 12 13 14 15 16]{8} [1 2 3 4 5 6 7 8 10 11 12 13 14 15 16] 9{2} [1 2 3 4 5 6 7 8 10 11 12 13 14 15 16]*) | ([1 2 3 4 5 6 7 8 10 11 12 13 14 15 16]* 9{3} [1 2 3 4 5 6 7 8 10 11 12 13 14 15 16]{7} [1 2 3 4 5 6 7 8 10 11 12 13 14 15 16] 9{3} [1 2 3 4 5 6 7 8 10 11 12 13 14 15 16]*) | ([1 2 3 4 5 6 7 8 10 11 12 13 14 15 16]* 9{2} [1 2 3 4 5 6 7 8 10 11 12 13 14 15 16] [1 2 3 4 5 6 7 8 10 11 12 13 14 15 16]{8} 9{2} [1 2 3 4 5 6 7 8 10 11 12 13 14 15 16] [1 2 3 4 5 6 7 8 10 11 12 13 14 15 16]{8} 9{2} [1 2 3 4 5 6 7 8 10 11 12 13 14 15 16]*) )",
    "( ([1 2 3 4 5 6 7 8 9 11 12 13 14 15 16]* 10{2} [1 2 3 4 5 6 7 8 9 11 12 13 14 15 16]{8} [1 2 3 4 5 6 7 8 9 11 12 13 14 15 16] 10{2} [1 2 3 4 5 6 7 8 9 11 12 13 14 15 16]{8} [1 2 3 4 5 6 7 8 9 11 12 13 14 15 16] 10{2} [1 2 3 4 5 6 7 8 9 11 12 13 14 15 16]{8} [1 2 3 4 5 6 7 8 9 11 12 13 14 15 16] 10{3} [1 2 3 4 5 6 7 8 9 11 12 13 14 15 16]{7} [1 2 3 4 5 6 7 8 9 11 12 13 14 15 16] [1 2 3 4 5 6 7 8 9 11 12 13 14 15 16]{1} 10{2} [1 2 3 4 5 6 7 8 9 11 12 13 14 15 16]{7} [1 2 3 4 5 6 7 8 9 11 12 13 14 15 16] [1 2 3 4 5 6 7 8 9 11 12 13 14 15 16]{1} 10{2} [1 2 3 4 5 6 7 8 9 11 12 13 14 15 16]*) | ([1 2 3 4 5 6 7 8 9 11 12 13 14 15 16]* 10{4} [1 2 3 4 5 6 7 8 9 11 12 13 14 15 16] [1 2 3 4 5 6 7 8 9 11 12 13 14 15 16]{4} 10{6} [1 2 3 4 5 6 7 8 9 11 12 13 14 15 16] [1 2 3 4 5 6 7 8 9 11 12 13 14 15 16]{4} 10{3} [1 2 3 4 5 6 7 8 9 11 12 13 14 15 16]*) | ([1 2 3 4 5 6 7 8 9 11 12 13 14 15 16]* 10{2} [1 2 3 4 5 6 7 8 9 11 12 13 14 15 16]{1} [1 2 3 4 5 6 7 8 9 11 12 13 14 15 16] [1 2 3 4 5 6 7 8 9 11 12 13 14 15 16]{7} 10{2} [1 2 3 4 5 6 7 8 9 11 12 13 14 15 16]{1} [1 2 3 4 5 6 7 8 9 11 12 13 14 15 16] [1 2 3 4 5 6 7 8 9 11 12 13 14 15 16]{7} 10{3} [1 2 3 4 5 6 7 8 9 11 12 13 14 15 16] [1 2 3 4 5 6 7 8 9 11 12 13 14 15 16]{8} 10{2} [1 2 3 4 5 6 7 8 9 11 12 13 14 15 16] [1 2 3 4 5 6 7 8 9 11 12 13 14 15 16]{8} 10{2} [1 2 3 4 5 6 7 8 9 11 12 13 14 15 16] [1 2 3 4 5 6 7 8 9 11 12 13 14 15 16]{8} 10{2} [1 2 3 4 5 6 7 8 9 11 12 13 14 15 16]*) | ([1 2 3 4 5 6 7 8 9 11 12 13 14 15 16]* 10{3} [1 2 3 4 5 6 7 8 9 11 12 13 14 15 16]{4} [1 2 3 4 5 6 7 8 9 11 12 13 14 15 16] 10{6} [1 2 3 4 5 6 7 8 9 11 12 13 14 15 16]{4} [1 2 3 4 5 6 7 8 9 11 12 13 14 15 16] 10{4} [1 2 3 4 5 6 7 8 9 11 12 13 14 15 16]*) | ([1 2 3 4 5 6 7 8 9 11 12 13 14 15 16]* 10{2} [1 2 3 4 5 6 7 8 9 11 12 13 14 15 16] [1 2 3 4 5 6 7 8 9 11 12 13 14 15 16]{8} 10{2} [1 2 3 4 5 6 7 8 9 11 12 13 14 15 16] [1 2 3 4 5 6 7 8 9 11 12 13 14 15 16]{8} 10{2} [1 2 3 4 5 6 7 8 9 11 12 13 14 15 16] [1 2 3 4 5 6 7 8 9 11 12 13 14 15 16]{7} 10{3} [1 2 3 4 5 6 7 8 9 11 12 13 14 15 16] [1 2 3 4 5 6 7 8 9 11 12 13 14 15 16]{7} 10{2} [1 2 3 4 5 6 7 8 9 11 12 13 14 15 16]{1} [1 2 3 4 5 6 7 8 9 11 12 13 14 15 16] [1 2 3 4 5 6 7 8 9 11 12 13 14 15 16]{7} 10{2} [1 2 3 4 5 6 7 8 9 11 12 13 14 15 16]*) | ([1 2 3 4 5 6 7 8 9 11 12 13 14 15 16]* 10{4} [1 2 3 4 5 6 7 8 9 11 12 13 14 15 16]{6} [1 2 3 4 5 6 7 8 9 11 12 13 14 15 16] 10{6} [1 2 3 4 5 6 7 8 9 11 12 13 14 15 16]{4} [1 2 3 4 5 6 7 8 9 11 12 13 14 15 16] [1 2 3 4 5 6 7 8 9 11 12 13 14 15 16]{3} 10{3} [1 2 3 4 5 6 7 8 9 11 12 13 14 15 16]*) | ([1 2 3 4 5 6 7 8 9 11 12 13 14 15 16]* 10{2} [1 2 3 4 5 6 7 8 9 11 12 13 14 15 16]{7} [1 2 3 4 5 6 7 8 9 11 12 13 14 15 16] [1 2 3 4 5 6 7 8 9 11 12 13 14 15 16]{1} 10{2} [1 2 3 4 5 6 7 8 9 11 12 13 14 15 16]{7} [1 2 3 4 5 6 7 8 9 11 12 13 14 15 16] 10{3} [1 2 3 4 5 6 7 8 9 11 12 13 14 15 16]{7} [1 2 3 4 5 6 7 8 9 11 12 13 14 15 16] 10{2} [1 2 3 4 5 6 7 8 9 11 12 13 14 15 16]{8} [1 2 3 4 5 6 7 8 9 11 12 13 14 15 16] 10{2} [1 2 3 4 5 6 7 8 9 11 12 13 14 15 16]{8} [1 2 3 4 5 6 7 8 9 11 12 13 14 15 16] 10{2} [1 2 3 4 5 6 7 8 9 11 12 13 14 15 16]*) | ([1 2 3 4 5 6 7 8 9 11 12 13 14 15 16]* 10{3} [1 2 3 4 5 6 7 8 9 11 12 13 14 15 16]{3} [1 2 3 4 5 6 7 8 9 11 12 13 14 15 16] [1 2 3 4 5 6 7 8 9 11 12 13 14 15 16]{4} 10{6} [1 2 3 4 5 6 7 8 9 11 12 13 14 15 16] [1 2 3 4 5 6 7 8 9 11 12 13 14 15 16]{6} 10{4} [1 2 3 4 5 6 7 8 9 11 12 13 14 15 16]*) )",
    "( ([1 2 3 4 5 6 7 8 9 10 12 13 14 15 16]* 11{1} [1 2 3 4 5 6 7 8 9 10 12 13 14 15 16] [1 2 3 4 5 6 7 8 9 10 12 13 14 15 16]{9} 11{1} [1 2 3 4 5 6 7 8 9 10 12 13 14 15 16] [1 2 3 4 5 6 7 8 9 10 12 13 14 15 16]{9} 11{1} [1 2 3 4 5 6 7 8 9 10 12 13 14 15 16]*) | ([1 2 3 4 5 6 7 8 9 10 12 13 14 15 16]* 11{3} [1 2 3 4 5 6 7 8 9 10 12 13 14 15 16]*) | ([1 2 3 4 5 6 7 8 9 10 12 13 14 15 16]* 11{1} [1 2 3 4 5 6 7 8 9 10 12 13 14 15 16]{9} [1 2 3 4 5 6 7 8 9 10 12 13 14 15 16] 11{1} [1 2 3 4 5 6 7 8 9 10 12 13 14 15 16]{9} [1 2 3 4 5 6 7 8 9 10 12 13 14 15 16] 11{1} [1 2 3 4 5 6 7 8 9 10 12 13 14 15 16]*) )",
    "( ([1 2 3 4 5 6 7 8 9 10 11 13 14 15 16]* 12{2} [1 2 3 4 5 6 7 8 9 10 11 13 14 15 16]{6} [1 2 3 4 5 6 7 8 9 10 11 13 14 15 16] [1 2 3 4 5 6 7 8 9 10 11 13 14 15 16]{2} 12{2} [1 2 3 4 5 6 7 8 9 10 11 13 14 15 16]{6} [1 2 3 4 5 6 7 8 9 10 11 13 14 15 16] [1 2 3 4 5 6 7 8 9 10 11 13 14 15 16]{2} 12{3} [1 2 3 4 5 6 7 8 9 10 11 13 14 15 16]{5} [1 2 3 4 5 6 7 8 9 10 11 13 14 15 16] [1 2 3 4 5 6 7 8 9 10 11 13 14 15 16]{3} 12{3} [1 2 3 4 5 6 7 8 9 10 11 13 14 15 16]{4} [1 2 3 4 5 6 7 8 9 10 11 13 14 15 16] [1 2 3 4 5 6 7 8 9 10 11 13 14 15 16]{3} 12{3} [1 2 3 4 5 6 7 8 9 10 11 13 14 15 16]{4} [1 2 3 4 5 6 7 8 9 10 11 13 14 15 16] [1 2 3 4 5 6 7 8 9 10 11 13 14 15 16]{3} 12{4} [1 2 3 4 5 6 7 8 9 10 11 13 14 15 16]{3} [1 2 3 4 5 6 7 8 9 10 11 13 14 15 16] [1 2 3 4 5 6 7 8 9 10 11 13 14 15 16]{4} 12{3} [1 2 3 4 5 6 7 8 9 10 11 13 14 15 16]*) | ([1 2 3 4 5 6 7 8 9 10 11 13 14 15 16]* 12{3} [1 2 3 4 5 6 7 8 9 10 11 13 14 15 16] [1 2 3 4 5 6 7 8 9 10 11 13 14 15 16]{4} 12{6} [1 2 3 4 5 6 7 8 9 10 11 13 14 15 16] [1 2 3 4 5 6 7 8 9 10 11 13 14 15 16]{3} 12{5} [1 2 3 4 5 6 7 8 9 10 11 13 14 15 16]{2} [1 2 3 4 5 6 7 8 9 10 11 13 14 15 16] [1 2 3 4 5 6 7 8 9 10 11 13 14 15 16]{3} 12{4} [1 2 3 4 5 6 7 8 9 10 11 13 14 15 16]{3} [1 2 3 4 5 6 7 8 9 10 11 13 14 15 16] [1 2 3 4 5 6 7 8 9 10 11 13 14 15 16]{3} 12{2} [1 2 3 4 5 6 7 8 9 10 11 13 14 15 16]*) | ([1 2 3 4 5 6 7 8 9 10 11 13 14 15 16]* 12{3} [1 2 3 4 5 6 7 8 9 10 11 13 14 15 16]{4} [1 2 3 4 5 6 7 8 9 10 11 13 14 15 16] [1 2 3 4 5 6 7 8 9 10 11 13 14 15 16]{3} 12{4} [1 2 3 4 5 6 7 8 9 10 11 13 14 15 16]{3} [1 2 3 4 5 6 7 8 9 10 11 13 14 15 16] [1 2 3 4 5 6 7 8 9 10 11 13 14 15 16]{4} 12{3} [1 2 3 4 5 6 7 8 9 10 11 13 14 15 16]{3} [1 2 3 4 5 6 7 8 9 10 11 13 14 15 16] [1 2 3 4 5 6 7 8 9 10 11 13 14 15 16]{4} 12{3} [1 2 3 4 5 6 7 8 9 10 11 13 14 15 16]{3} [1 2 3 4 5 6 7 8 9 10 11 13 14 15 16] [1 2 3 4 5 6 7 8 9 10 11 13 14 15 16]{5} 12{3} [1 2 3 4 5 6 7 8 9 10 11 13 14 15 16]{2} [1 2 3 4 5 6 7 8 9 10 11 13 14 15 16] [1 2 3 4 5 6 7 8 9 10 11 13 14 15 16]{6} 12{2} [1 2 3 4 5 6 7 8 9 10 11 13 14 15 16]{2} [1 2 3 4 5 6 7 8 9 10 11 13 14 15 16] [1 2 3 4 5 6 7 8 9 10 11 13 14 15 16]{6} 12{2} [1 2 3 4 5 6 7 8 9 10 11 13 14 15 16]*) | ([1 2 3 4 5 6 7 8 9 10 11 13 14 15 16]* 12{2} [1 2 3 4 5 6 7 8 9 10 11 13 14 15 16]{3} [1 2 3 4 5 6 7 8 9 10 11 13 14 15 16] [1 2 3 4 5 6 7 8 9 10 11 13 14 15 16]{3} 12{4} [1 2 3 4 5 6 7 8 9 10 11 13 14 15 16]{3} [1 2 3 4 5 6 7 8 9 10 11 13 14 15 16] [1 2 3 4 5 6 7 8 9 10 11 13 14 15 16]{2} 12{5} [1 2 3 4 5 6 7 8 9 10 11 13 14 15 16]{3} [1 2 3 4 5 6 7 8 9 10 11 13 14 15 16] 12{6} [1 2 3 4 5 6 7 8 9 10 11 13 14 15 16]{4} [1 2 3 4 5 6 7 8 9 10 11 13 14 15 16] 12{3} [1 2 3 4 5 6 7 8 9 10 11 13 14 15 16]*) | ([1 2 3 4 5 6 7 8 9 10 11 13 14 15 16]* 12{2} [1 2 3 4 5 6 7 8 9 10 11 13 14 15 16]{2} [1 2 3 4 5 6 7 8 9 10 11 13 14 15 16] [1 2 3 4 5 6 7 8 9 10 11 13 14 15 16]{6} 12{2} [1 2 3 4 5 6 7 8 9 10 11 13 14 15 16]{2} [1 2 3 4 5 6 7 8 9 10 11 13 14 15 16] [1 2 3 4 5 6 7 8 9 10 11 13 14 15 16]{5} 12{3} [1 2 3 4 5 6 7 8 9 10 11 13 14 15 16]{2} [1 2 3 4 5 6 7 8 9 10 11 13 14 15 16] [1 2 3 4 5 6 7 8 9 10 11 13 14 15 16]{4} 12{3} [1 2 3 4 5 6 7 8 9 10 11 13 14 15 16]{3} [1 2 3 4 5 6 7 8 9 10 11 13 14 15 16] [1 2 3 4 5 6 7 8 9 10 11 13 14 15 16]{4} 12{3} [1 2 3 4 5 6 7 8 9 10 11 13 14 15 16]{3} [1 2 3 4 5 6 7 8 9 10 11 13 14 15 16] [1 2 3 4 5 6 7 8 9 10 11 13 14 15 16]{3} 12{4} [1 2 3 4 5 6 7 8 9 10 11 13 14 15 16]{3} [1 2 3 4 5 6 7 8 9 10 11 13 14 15 16] [1 2 3 4 5 6 7 8 9 10 11 13 14 15 16]{3} 12{3} [1 2 3 4 5 6 7 8 9 10 11 13 14 15 16]*) | ([1 2 3 4 5 6 7 8 9 10 11 13 14 15 16]* 12{3} [1 2 3 4 5 6 7 8 9 10 11 13 14 15 16]{7} [1 2 3 4 5 6 7 8 9 10 11 13 14 15 16] 12{6} [1 2 3 4 5 6 7 8 9 10 11 13 14 15 16]{4} [1 2 3 4 5 6 7 8 9 10 11 13 14 15 16] [1 2 3 4 5 6 7 8 9 10 11 13 14 15 16]{2} 12{5} [1 2 3 4 5 6 7 8 9 10 11 13 14 15 16]{3} [1 2 3 4 5 6 7 8 9 10 11 13 14 15 16] [1 2 3 4 5 6 7 8 9 10 11 13 14 15 16]{3} 12{4} [1 2 3 4 5 6 7 8 9 10 11 13 14 15 16]{3} [1 2 3 4 5 6 7 8 9 10 11 13 14 15 16] [1 2 3 4 5 6 7 8 9 10 11 13 14 15 16]{5} 12{2} [1 2 3 4 5 6 7 8 9 10 11 13 14 15 16]*) | ([1 2 3 4 5 6 7 8 9 10 11 13 14 15 16]* 12{3} [1 2 3 4 5 6 7 8 9 10 11 13 14 15 16]{3} [1 2 3 4 5 6 7 8 9 10 11 13 14 15 16] [1 2 3 4 5 6 7 8 9 10 11 13 14 15 16]{3} 12{4} [1 2 3 4 5 6 7 8 9 10 11 13 14 15 16]{3} [1 2 3 4 5 6 7 8 9 10 11 13 14 15 16] [1 2 3 4 5 6 7 8 9 10 11 13 14 15 16]{3} 12{3} [1 2 3 4 5 6 7 8 9 10 11 13 14 15 16]{4} [1 2 3 4 5 6 7 8 9 10 11 13 14 15 16] [1 2 3 4 5 6 7 8 9 10 11 13 14 15 16]{3} 12{3} [1 2 3 4 5 6 7 8 9 10 11 13 14 15 16]{4} [1 2 3 4 5 6 7 8 9 10 11 13 14 15 16] [1 2 3 4 5 6 7 8 9 10 11 13 14 15 16]{2} 12{3} [1 2 3 4 5 6 7 8 9 10 11 13 14 15 16]{5} [1 2 3 4 5 6 7 8 9 10 11 13 14 15 16] [1 2 3 4 5 6 7 8 9 10 11 13 14 15 16]{2} 12{2} [1 2 3 4 5 6 7 8 9 10 11 13 14 15 16]{6} [1 2 3 4 5 6 7 8 9 10 11 13 14 15 16] [1 2 3 4 5 6 7 8 9 10 11 13 14 15 16]{2} 12{2} [1 2 3 4 5 6 7 8 9 10 11 13 14 15 16]*) | ([1 2 3 4 5 6 7 8 9 10 11 13 14 15 16]* 12{2} [1 2 3 4 5 6 7 8 9 10 11 13 14 15 16]{5} [1 2 3 4 5 6 7 8 9 10 11 13 14 15 16] [1 2 3 4 5 6 7 8 9 10 11 13 14 15 16]{3} 12{4} [1 2 3 4 5 6 7 8 9 10 11 13 14 15 16]{3} [1 2 3 4 5 6 7 8 9 10 11 13 14 15 16] [1 2 3 4 5 6 7 8 9 10 11 13 14 15 16]{3} 12{5} [1 2 3 4 5 6 7 8 9 10 11 13 14 15 16]{2} [1 2 3 4 5 6 7 8 9 10 11 13 14 15 16] [1 2 3 4 5 6 7 8 9 10 11 13 14 15 16]{4} 12{6} [1 2 3 4 5 6 7 8 9 10 11 13 14 15 16] [1 2 3 4 5 6 7 8 9 10 11 13 14 15 16]{7} 12{3} [1 2 3 4 5 6 7 8 9 10 11 13 14 15 16]*) )",
    "( ([1 2 3 4 5 6 7 8 9 10 11 12 14 15 16]* 13{2} [1 2 3 4 5 6 7 8 9 10 11 12 14 15 16] [1 2 3 4 5 6 7 8 9 10 11 12 14 15 16]{9} 13{1} [1 2 3 4 5 6 7 8 9 10 11 12 14 15 16]*) | ([1 2 3 4 5 6 7 8 9 10 11 12 14 15 16]* 13{1} [1 2 3 4 5 6 7 8 9 10 11 12 14 15 16]{6} [1 2 3 4 5 6 7 8 9 10 11 12 14 15 16] [1 2 3 4 5 6 7 8 9 10 11 12 14 15 16]{2} 13{2} [1 2 3 4 5 6 7 8 9 10 11 12 14 15 16]*) | ([1 2 3 4 5 6 7 8 9 10 11 12 14 15 16]* 13{1} [1 2 3 4 5 6 7 8 9 10 11 12 14 15 16]{9} [1 2 3 4 5 6 7 8 9 10 11 12 14 15 16] 13{2} [1 2 3 4 5 6 7 8 9 10 11 12 14 15 16]*) | ([1 2 3 4 5 6 7 8 9 10 11 12 14 15 16]* 13{2} [1 2 3 4 5 6 7 8 9 10 11 12 14 15 16]{2} [1 2 3 4 5 6 7 8 9 10 11 12 14 15 16] [1 2 3 4 5 6 7 8 9 10 11 12 14 15 16]{6} 13{1} [1 2 3 4 5 6 7 8 9 10 11 12 14 15 16]*) | ([1 2 3 4 5 6 7 8 9 10 11 12 14 15 16]* 13{2} [1 2 3 4 5 6 7 8 9 10 11 12 14 15 16]{8} [1 2 3 4 5 6 7 8 9 10 11 12 14 15 16] 13{1} [1 2 3 4 5 6 7 8 9 10 11 12 14 15 16]*) | ([1 2 3 4 5 6 7 8 9 10 11 12 14 15 16]* 13{1} [1 2 3 4 5 6 7 8 9 10 11 12 14 15 16]{3} [1 2 3 4 5 6 7 8 9 10 11 12 14 15 16] [1 2 3 4 5 6 7 8 9 10 11 12 14 15 16]{6} 13{2} [1 2 3 4 5 6 7 8 9 10 11 12 14 15 16]*) | ([1 2 3 4 5 6 7 8 9 10 11 12 14 15 16]* 13{1} [1 2 3 4 5 6 7 8 9 10 11 12 14 15 16] [1 2 3 4 5 6 7 8 9 10 11 12 14 15 16]{8} 13{2} [1 2 3 4 5 6 7 8 9 10 11 12 14 15 16]*) | ([1 2 3 4 5 6 7 8 9 10 11 12 14 15 16]* 13{2} [1 2 3 4 5 6 7 8 9 10 11 12 14 15 16]{6} [1 2 3 4 5 6 7 8 9 10 11 12 14 15 16] [1 2 3 4 5 6 7 8 9 10 11 12 14 15 16]{3} 13{1} [1 2 3 4 5 6 7 8 9 10 11 12 14 15 16]*) )",
    "( ([1 2 3 4 5 6 7 8 9 10 11 12 13 15 16]* 14{1} [1 2 3 4 5 6 7 8 9 10 11 12 13 15 16]{6} [1 2 3 4 5 6 7 8 9 10 11 12 13 15 16] [1 2 3 4 5 6 7 8 9 10 11 12 13 15 16]{3} 14{1} [1 2 3 4 5 6 7 8 9 10 11 12 13 15 16]*) | ([1 2 3 4 5 6 7 8 9 10 11 12 13 15 16]* 14{2} [1 2 3 4 5 6 7 8 9 10 11 12 13 15 16]*) | ([1 2 3 4 5 6 7 8 9 10 11 12 13 15 16]* 14{1} [1 2 3 4 5 6 7 8 9 10 11 12 13 15 16]{3} [1 2 3 4 5 6 7 8 9 10 11 12 13 15 16] [1 2 3 4 5 6 7 8 9 10 11 12 13 15 16]{6} 14{1} [1 2 3 4 5 6 7 8 9 10 11 12 13 15 16]*) )",
    "( ([1 2 3 4 5 6 7 8 9 10 11 12 13 14 16]* 15{1} [1 2 3 4 5 6 7 8 9 10 11 12 13 14 16]{3} [1 2 3 4 5 6 7 8 9 10 11 12 13 14 16] [1 2 3 4 5 6 7 8 9 10 11 12 13 14 16]{6} 15{1} [1 2 3 4 5 6 7 8 9 10 11 12 13 14 16]*) | ([1 2 3 4 5 6 7 8 9 10 11 12 13 14 16]* 15{2} [1 2 3 4 5 6 7 8 9 10 11 12 13 14 16]*) | ([1 2 3 4 5 6 7 8 9 10 11 12 13 14 16]* 15{1} [1 2 3 4 5 6 7 8 9 10 11 12 13 14 16]{6} [1 2 3 4 5 6 7 8 9 10 11 12 13 14 16] [1 2 3 4 5 6 7 8 9 10 11 12 13 14 16]{3} 15{1} [1 2 3 4 5 6 7 8 9 10 11 12 13 14 16]*) )",
];
